648
Lattice="21.51909399900126 0.0 0.0 0.0 21.51909399900126 0.0 0.0 0.0 21.51909399900126" Properties=species:S:1:pos:R:3:masses:R:1:momenta:R:3:id:I:1:type:I:1 comment="LAMMPS data file via write_data, version 2 Aug 2023, timestep = 11739, units = metal" pbc="T T T"
Si       0.31831917       4.19783789       8.39970338      28.06000001      -0.00000000       0.00000000       0.00000000        1        2
Si      15.19606789       6.25571795      14.81137587      28.06000001       0.00000000       0.00000000       0.00000000        2        2
Si      18.36448706      16.58100784       5.58608268      28.06000001      -0.00000000      -0.00000000       0.00000000        3        2
Si      20.70879948      11.51619445       9.80812137      28.06000001       0.00000000       0.00000000      -0.00000000        4        2
Si      18.12331540       6.07707125       0.56637455      28.06000001       0.00000000       0.00000000      -0.00000000        5        2
Si       5.04054948      17.94627650      11.64142332      28.06000001       0.00000000      -0.00000000       0.00000000        6        2
Si      17.71215826      19.64109279       5.52396478      28.06000001       0.00000000       0.00000000      -0.00000000        7        2
Si      20.12001569       1.73684732       7.58782415      28.06000001      -0.00000000      -0.00000000       0.00000000        8        2
O        8.44046994      14.01330407      16.13688328      15.99000000       0.00000000       0.00000000       0.00000000        9        1
O       12.80290654      16.22629134      15.79176323      15.99000000       0.00000000       0.00000000      -0.00000000       10        1
O        8.30827353       5.51117788      18.98541370      15.99000000      -0.00000000      -0.00000000       0.00000000       11        1
O       19.16926197       2.27525515       6.39316021      15.99000000       0.00000000      -0.00000000       0.00000000       12        1
O       14.05170853      13.09413182      19.47543537      15.99000000       0.00000000      -0.00000000      -0.00000000       13        1
O        1.89523051       9.12006436       2.12247855      15.99000000      -0.00000000      -0.00000000       0.00000000       14        1
O       10.13480380      11.00054143      16.75037085      15.99000000      -0.00000000       0.00000000      -0.00000000       15        1
O        4.38378520       4.08877084      13.53504861      15.99000000       0.00000000      -0.00000000       0.00000000       16        1
O        8.60555660       3.29892255       1.88743805      15.99000000       0.00000000       0.00000000       0.00000000       17        1
O       10.12238321       2.81898547      11.87026046      15.99000000      -0.00000000       0.00000000       0.00000000       18        1
O       15.65478685      15.91113869       8.12932790      15.99000000       0.00000000      -0.00000000       0.00000000       19        1
O        8.29494446      10.54697431      21.31266136      15.99000000      -0.00000000       0.00000000      -0.00000000       20        1
O       14.83732290       5.42953398      20.71004133      15.99000000       0.00000000       0.00000000       0.00000000       21        1
O        0.32493477       9.70297766       4.70075927      15.99000000      -0.00000000      -0.00000000       0.00000000       22        1
O       14.25952558      12.19387223       9.55964682      15.99000000       0.00000000       0.00000000      -0.00000000       23        1
O       13.26736632       3.30448928      21.34059124      15.99000000       0.00000000       0.00000000       0.00000000       24        1
Si       7.47093783       6.47669666       3.55818258      28.06000001       0.00000000      -0.00000000       0.00000000       25        2
Si      18.28287216      20.87486903      14.93826429      28.06000001       0.00000000       0.00000000       0.00000000       26        2
Si      17.94227971      19.71880543      17.81266378      28.06000001      -0.00000000       0.00000000       0.00000000       27        2
Si      21.38508157       0.12261442      14.73839518      28.06000001      -0.00000000       0.00000000       0.00000000       28        2
Si      13.01947112      11.87257687      19.86668495      28.06000001      -0.00000000       0.00000000       0.00000000       29        2
Si      16.38015613      14.78606658       7.19340633      28.06000001      -0.00000000      -0.00000000      -0.00000000       30        2
Si       2.55388956      15.04927899       3.23294097      28.06000001      -0.00000000      -0.00000000      -0.00000000       31        2
Si      21.21156639       3.17121507       0.99223620      28.06000001       0.00000000       0.00000000       0.00000000       32        2
O        4.56718951       6.16039599      17.29706640      15.99000000      -0.00000000      -0.00000000      -0.00000000       33        1
O       12.85312510      13.86333206      14.55279087      15.99000000       0.00000000       0.00000000      -0.00000000       34        1
O        1.42700909      14.83417532       4.39982770      15.99000000      -0.00000000      -0.00000000      -0.00000000       35        1
O        6.64533711      10.07565587      19.21444503      15.99000000       0.00000000      -0.00000000       0.00000000       36        1
O       14.47031348       1.34881037      17.45957016      15.99000000      -0.00000000       0.00000000       0.00000000       37        1
O       18.27854723      19.86224203       9.65687705      15.99000000      -0.00000000      -0.00000000      -0.00000000       38        1
O        0.60372053      12.15755929      10.33223654      15.99000000      -0.00000000       0.00000000      -0.00000000       39        1
O        8.82400141       8.48373317      12.37216382      15.99000000       0.00000000      -0.00000000      -0.00000000       40        1
O       16.15096165      18.91252074      20.97273593      15.99000000      -0.00000000       0.00000000      -0.00000000       41        1
O       12.18089475      17.52361225      20.58125903      15.99000000      -0.00000000      -0.00000000      -0.00000000       42        1
O       15.09084281      12.46800148       2.66098905      15.99000000       0.00000000      -0.00000000      -0.00000000       43        1
O       18.12946863      19.76626207      13.75383541      15.99000000       0.00000000       0.00000000      -0.00000000       44        1
O       12.32624206      18.47549962       8.46815969      15.99000000       0.00000000      -0.00000000      -0.00000000       45        1
O       10.92589039      13.59794300      16.97741353      15.99000000       0.00000000       0.00000000      -0.00000000       46        1
O        4.27609640       9.18578447      11.33680542      15.99000000      -0.00000000      -0.00000000       0.00000000       47        1
O       21.27257587       0.94961953      18.41740424      15.99000000      -0.00000000      -0.00000000       0.00000000       48        1
Si       0.09676044      14.05504063       4.94284861      28.06000001      -0.00000000       0.00000000       0.00000000       49        2
Si      -0.09740765      11.97335552       1.05401260      28.06000001       0.00000000       0.00000000      -0.00000000       50        2
Si      10.12092419       5.60039811      14.60970771      28.06000001       0.00000000      -0.00000000      -0.00000000       51        2
Si      19.97509353       4.64534581      19.97903027      28.06000001      -0.00000000       0.00000000       0.00000000       52        2
Si      13.71033995      14.87432150      15.53471693      28.06000001      -0.00000000       0.00000000      -0.00000000       53        2
Si       5.99020165      15.44418212      10.00226334      28.06000001       0.00000000      -0.00000000       0.00000000       54        2
Si       5.76897117       0.15191981       6.49545252      28.06000001      -0.00000000      -0.00000000       0.00000000       55        2
Si      16.31829587      11.42062513       2.85503411      28.06000001       0.00000000       0.00000000      -0.00000000       56        2
O       15.12951716      15.30015871      14.84191442      15.99000000       0.00000000       0.00000000       0.00000000       57        1
O        4.37155514       4.98579238      19.73501112      15.99000000      -0.00000000      -0.00000000       0.00000000       58        1
O       18.43920134       9.87728548      20.99950597      15.99000000       0.00000000       0.00000000       0.00000000       59        1
O       13.97032914       7.18109717       0.97045879      15.99000000       0.00000000      -0.00000000       0.00000000       60        1
O       18.77685106       3.91153302      19.11397675      15.99000000      -0.00000000      -0.00000000      -0.00000000       61        1
O        5.85042806      20.47911172       5.38791938      15.99000000      -0.00000000      -0.00000000       0.00000000       62        1
O        8.75946410       6.44465581       2.51665212      15.99000000       0.00000000       0.00000000       0.00000000       63        1
O       16.51222056       5.82845381      15.68766725      15.99000000      -0.00000000      -0.00000000      -0.00000000       64        1
O        9.68072061      15.95599474      11.83510703      15.99000000       0.00000000       0.00000000      -0.00000000       65        1
O       13.93994367      10.51382621      19.85195947      15.99000000       0.00000000      -0.00000000       0.00000000       66        1
O        9.99923889      21.53468536      12.26175680      15.99000000       0.00000000      -0.00000000      -0.00000000       67        1
O        7.58546214      15.99338897      13.45882231      15.99000000       0.00000000      -0.00000000      -0.00000000       68        1
O       17.64393492       4.56761865       0.92887082      15.99000000      -0.00000000      -0.00000000       0.00000000       69        1
O        6.49028707      10.75913511      10.78793139      15.99000000      -0.00000000       0.00000000       0.00000000       70        1
O       15.58754615       7.45873747      13.78967463      15.99000000       0.00000000      -0.00000000      -0.00000000       71        1
O       16.99336345       1.70624807       4.96294363      15.99000000       0.00000000      -0.00000000      -0.00000000       72        1
Si       8.22530574       7.66608032      16.07264276      28.06000001      -0.00000000      -0.00000000      -0.00000000       73        2
Si       7.40518190       7.71773148      12.63144201      28.06000001       0.00000000       0.00000000      -0.00000000       74        2
Si       6.30064080      16.71193659      14.21462949      28.06000001       0.00000000       0.00000000       0.00000000       75        2
Si       5.75974209      18.23920312      19.93285352      28.06000001       0.00000000      -0.00000000      -0.00000000       76        2
Si      12.01464109       6.78827921      18.89055564      28.06000001       0.00000000      -0.00000000       0.00000000       77        2
Si      11.25489084      20.20223945      15.52473041      28.06000001      -0.00000000       0.00000000       0.00000000       78        2
Si      14.01468132      10.65034378       9.05510448      28.06000001      -0.00000000      -0.00000000       0.00000000       79        2
Si      13.61385348      13.86842399       6.09935190      28.06000001      -0.00000000      -0.00000000      -0.00000000       80        2
O        4.31541226      11.13015696       6.34604659      15.99000000      -0.00000000      -0.00000000      -0.00000000       81        1
O        7.93208514       5.60680950       4.87065849      15.99000000       0.00000000       0.00000000       0.00000000       82        1
O        8.81529822       9.01303504      15.33185892      15.99000000      -0.00000000       0.00000000      -0.00000000       83        1
O       12.84348563       8.15474602      19.24751741      15.99000000       0.00000000      -0.00000000       0.00000000       84        1
O       10.98174991       5.65526147       3.78462290      15.99000000       0.00000000       0.00000000       0.00000000       85        1
O       18.89218303       7.00193583      16.25106560      15.99000000       0.00000000       0.00000000       0.00000000       86        1
O        5.45684768       0.09180995      10.17524666      15.99000000       0.00000000       0.00000000      -0.00000000       87        1
O       19.45263186      17.53119100      13.97978776      15.99000000       0.00000000       0.00000000      -0.00000000       88        1
O        0.41559937       6.97628757       5.42592598      15.99000000      -0.00000000       0.00000000       0.00000000       89        1
O       15.13692956       8.14077200      20.32878539      15.99000000       0.00000000      -0.00000000      -0.00000000       90        1
O       16.16182251       5.22889837       9.43064201      15.99000000       0.00000000       0.00000000      -0.00000000       91        1
O       21.28030924      14.66319850       6.41753475      15.99000000       0.00000000       0.00000000      -0.00000000       92        1
O       11.85966264       0.88817879       9.66929875      15.99000000      -0.00000000       0.00000000       0.00000000       93        1
O        1.55126557      17.97921679      13.27625107      15.99000000       0.00000000      -0.00000000       0.00000000       94        1
O       17.77871608      20.01464113      16.22634883      15.99000000      -0.00000000      -0.00000000      -0.00000000       95        1
O       21.74367248       1.62961829       1.14952261      15.99000000      -0.00000000       0.00000000      -0.00000000       96        1
Si       0.19100558       5.35731264       5.46064951      28.06000001      -0.00000000       0.00000000       0.00000000       97        2
Si      12.77599140       8.12297392       1.61732842      28.06000001      -0.00000000       0.00000000       0.00000000       98        2
Si       9.74906361      14.73498830      16.78861837      28.06000001      -0.00000000      -0.00000000      -0.00000000       99        2
Si       8.17727115      21.09059441      16.10565903      28.06000001      -0.00000000      -0.00000000       0.00000000      100        2
Si       9.52345825      15.92787590      19.67029292      28.06000001       0.00000000      -0.00000000      -0.00000000      101        2
Si      13.20954266      10.40319136      15.37021065      28.06000001       0.00000000      -0.00000000       0.00000000      102        2
Si      19.14422742       9.79401434      19.52827226      28.06000001      -0.00000000       0.00000000       0.00000000      103        2
Si       7.58630093       9.65669340       3.87438998      28.06000001       0.00000000      -0.00000000       0.00000000      104        2
O        8.66027701      15.50223856       4.30717659      15.99000000       0.00000000      -0.00000000       0.00000000      105        1
O        4.33073134       4.35206419       8.31149351      15.99000000       0.00000000       0.00000000      -0.00000000      106        1
O        7.33187200       2.96086636      18.72436016      15.99000000       0.00000000      -0.00000000       0.00000000      107        1
O        4.09521204       6.32385031       4.87564155      15.99000000       0.00000000       0.00000000       0.00000000      108        1
O       21.04809410      21.14328227       3.25625923      15.99000000      -0.00000000      -0.00000000      -0.00000000      109        1
O        3.17817996       1.47717849       4.26835904      15.99000000      -0.00000000       0.00000000       0.00000000      110        1
O        9.26671574      17.97139754       5.27371676      15.99000000      -0.00000000       0.00000000       0.00000000      111        1
O        2.80039963       1.85329525      13.37165716      15.99000000      -0.00000000       0.00000000       0.00000000      112        1
O        3.76180741       1.88817893       9.11769087      15.99000000      -0.00000000       0.00000000       0.00000000      113        1
O        6.94925251      21.05616576      12.24606773      15.99000000       0.00000000      -0.00000000      -0.00000000      114        1
O        1.84867688      21.42226535       2.35880324      15.99000000      -0.00000000      -0.00000000       0.00000000      115        1
O       19.07437748       0.72641560       8.36396342      15.99000000      -0.00000000       0.00000000       0.00000000      116        1
O       20.40597909      15.66096529      11.49817369      15.99000000      -0.00000000       0.00000000      -0.00000000      117        1
O        4.91873752      14.25430434       9.64564063      15.99000000      -0.00000000      -0.00000000       0.00000000      118        1
O       17.99006951      13.53845534      18.19419720      15.99000000      -0.00000000       0.00000000      -0.00000000      119        1
O        8.78959742       4.79392554      10.63375670      15.99000000       0.00000000      -0.00000000      -0.00000000      120        1
Si       1.54362054      21.02826529      10.44832399      28.06000001       0.00000000       0.00000000      -0.00000000      121        2
Si      11.93620167       5.89948257       9.61614129      28.06000001      -0.00000000       0.00000000      -0.00000000      122        2
Si       2.85863943      17.69871459      18.81329466      28.06000001      -0.00000000      -0.00000000       0.00000000      123        2
Si       7.71260994       5.89779993      10.08934603      28.06000001       0.00000000       0.00000000      -0.00000000      124        2
Si      18.37204425       4.28680062      12.92103179      28.06000001      -0.00000000      -0.00000000      -0.00000000      125        2
Si      20.23303059      19.24873728       0.82341237      28.06000001      -0.00000000       0.00000000      -0.00000000      126        2
Si       4.00031411      12.73403078       1.66979106      28.06000001       0.00000000      -0.00000000       0.00000000      127        2
Si       9.75051845       3.51421152       0.72218536      28.06000001       0.00000000       0.00000000       0.00000000      128        2
O        9.78594063      17.59140060       7.78687356      15.99000000      -0.00000000      -0.00000000       0.00000000      129        1
O       12.13404165       2.17448826      16.40979879      15.99000000      -0.00000000      -0.00000000      -0.00000000      130        1
O        4.87184828      11.28309066      12.84578260      15.99000000       0.00000000      -0.00000000       0.00000000      131        1
O       19.54223713      16.57009400       6.73274232      15.99000000       0.00000000      -0.00000000      -0.00000000      132        1
O        5.11256904       6.34451445       0.50069852      15.99000000      -0.00000000      -0.00000000      -0.00000000      133        1
O       13.60328404      12.92358197      12.05472367      15.99000000       0.00000000      -0.00000000       0.00000000      134        1
O        3.28588772       4.93132482       2.79884586      15.99000000      -0.00000000      -0.00000000      -0.00000000      135        1
O       13.42025465      15.57136366      19.13632394      15.99000000      -0.00000000      -0.00000000       0.00000000      136        1
O       20.07481979      20.10088077       7.82328005      15.99000000      -0.00000000      -0.00000000      -0.00000000      137        1
O       11.73529781       0.86664122       7.00395858      15.99000000       0.00000000       0.00000000       0.00000000      138        1
O       16.28503987       1.35423329      12.24686364      15.99000000      -0.00000000       0.00000000       0.00000000      139        1
O       13.52435500      15.37403682       5.47478502      15.99000000       0.00000000      -0.00000000       0.00000000      140        1
O       14.86001213       2.35285613       3.58353149      15.99000000      -0.00000000      -0.00000000      -0.00000000      141        1
O       19.85570295      11.23172059       4.08048399      15.99000000       0.00000000      -0.00000000       0.00000000      142        1
O        9.76231378      17.51358851       2.75734201      15.99000000      -0.00000000      -0.00000000       0.00000000      143        1
O        5.60338500      17.78208735      13.17613145      15.99000000       0.00000000      -0.00000000      -0.00000000      144        1
Si      13.58373255      13.36589254      10.48737382      28.06000001      -0.00000000      -0.00000000      -0.00000000      145        2
Si      10.97835831       1.33181178       8.37072013      28.06000001      -0.00000000       0.00000000      -0.00000000      146        2
Si       6.68921229      10.93058315       9.15808592      28.06000001      -0.00000000       0.00000000       0.00000000      147        2
Si      19.34609126      16.91016255      18.10683373      28.06000001       0.00000000      -0.00000000      -0.00000000      148        2
Si      10.87655142      17.04499097      12.20137972      28.06000001      -0.00000000      -0.00000000      -0.00000000      149        2
Si      12.42601029       7.34436810      15.80138409      28.06000001      -0.00000000       0.00000000       0.00000000      150        2
Si      13.70135028       4.38470534      20.14532241      28.06000001      -0.00000000      -0.00000000       0.00000000      151        2
Si       6.56563347      20.55409626      10.73266874      28.06000001      -0.00000000      -0.00000000      -0.00000000      152        2
O        8.81866711       6.31116885      15.33840605      15.99000000      -0.00000000       0.00000000      -0.00000000      153        1
O        4.66960752      21.37769151       7.65922954      15.99000000      -0.00000000       0.00000000       0.00000000      154        1
O       10.61751680       4.18691571      15.28967362      15.99000000      -0.00000000      -0.00000000      -0.00000000      155        1
O       18.89032652       5.56932377       7.79284924      15.99000000       0.00000000      -0.00000000       0.00000000      156        1
O        9.80387676      20.99476628      15.76518350      15.99000000       0.00000000       0.00000000       0.00000000      157        1
O        4.89182181       6.55746832      14.68767896      15.99000000       0.00000000       0.00000000      -0.00000000      158        1
O        6.38491466      17.13485646      21.00037087      15.99000000      -0.00000000       0.00000000       0.00000000      159        1
O       19.18863616      20.67946951      18.24907450      15.99000000       0.00000000       0.00000000       0.00000000      160        1
O       13.14054156      10.51276291       7.68445915      15.99000000      -0.00000000      -0.00000000      -0.00000000      161        1
O        8.61309098      13.59774460      12.76915413      15.99000000      -0.00000000      -0.00000000      -0.00000000      162        1
O       19.80836354      11.69671182       0.91710888      15.99000000       0.00000000       0.00000000       0.00000000      163        1
O        8.24832365       8.05057714      20.14007431      15.99000000       0.00000000       0.00000000       0.00000000      164        1
O       16.71533608      14.94040006      12.67911433      15.99000000      -0.00000000       0.00000000       0.00000000      165        1
O        0.95091989       4.68872053       4.17325089      15.99000000      -0.00000000       0.00000000      -0.00000000      166        1
O        4.92853522      12.13966945      19.59880844      15.99000000      -0.00000000      -0.00000000       0.00000000      167        1
O       18.94903773      16.36188420       4.06703011      15.99000000      -0.00000000      -0.00000000      -0.00000000      168        1
Si       0.13872884      17.30072015      20.27598806      28.06000001      -0.00000000       0.00000000       0.00000000      169        2
Si       0.38228149      15.15586711       0.99953696      28.06000001      -0.00000000      -0.00000000      -0.00000000      170        2
Si      15.25466244       2.16218002       8.04124845      28.06000001       0.00000000       0.00000000       0.00000000      171        2
Si      18.14882140       3.12759005       1.46502198      28.06000001       0.00000000       0.00000000      -0.00000000      172        2
Si      21.01832177      16.63157839      10.31777301      28.06000001      -0.00000000      -0.00000000      -0.00000000      173        2
Si      18.71684148       8.54608795      16.73939279      28.06000001      -0.00000000       0.00000000       0.00000000      174        2
Si      15.30704746       8.07307444      12.31173662      28.06000001       0.00000000      -0.00000000       0.00000000      175        2
Si      15.72161489      20.14729599      19.99158021      28.06000001       0.00000000       0.00000000      -0.00000000      176        2
O       19.06610097      11.89909012      16.28783897      15.99000000       0.00000000      -0.00000000       0.00000000      177        1
O        0.66409882      11.67524016      18.77754580      15.99000000      -0.00000000      -0.00000000      -0.00000000      178        1
O       21.00113419       5.34587118       9.21708359      15.99000000       0.00000000       0.00000000       0.00000000      179        1
O       18.85533700      12.30745995       6.32471920      15.99000000       0.00000000       0.00000000       0.00000000      180        1
O        5.13666123      19.21188921      16.29578124      15.99000000       0.00000000       0.00000000       0.00000000      181        1
O       17.18864184       0.53464846      14.69528659      15.99000000      -0.00000000       0.00000000      -0.00000000      182        1
O       15.13010717      13.83140612       6.72460401      15.99000000      -0.00000000       0.00000000       0.00000000      183        1
O        8.85521054      19.90820091       7.19846603      15.99000000      -0.00000000       0.00000000      -0.00000000      184        1
O       10.58140509       1.77332408      14.22659666      15.99000000       0.00000000      -0.00000000      -0.00000000      185        1
O       12.44039719       3.44137767       3.74081671      15.99000000      -0.00000000      -0.00000000      -0.00000000      186        1
O        5.32028893       1.53378938       5.76742223      15.99000000       0.00000000       0.00000000       0.00000000      187        1
O       20.19376520       8.64731031       6.61111264      15.99000000       0.00000000       0.00000000      -0.00000000      188        1
O        6.61221723       5.06641419       9.22062641      15.99000000       0.00000000      -0.00000000      -0.00000000      189        1
O        3.62609550      21.30459967      16.35392523      15.99000000       0.00000000       0.00000000       0.00000000      190        1
O        8.37576937      15.46757467      20.73358669      15.99000000      -0.00000000       0.00000000       0.00000000      191        1
O        5.95430797      19.03610406      10.82703890      15.99000000      -0.00000000      -0.00000000       0.00000000      192        1
Si       3.28955116       7.86025942      11.37255653      28.06000001       0.00000000      -0.00000000       0.00000000      193        2
Si       0.29826995      21.68823980       1.89695789      28.06000001      -0.00000000       0.00000000       0.00000000      194        2
Si      14.80250699       5.16606073       8.52055712      28.06000001      -0.00000000       0.00000000      -0.00000000      195        2
Si       3.96254754      17.37597023       4.87168161      28.06000001      -0.00000000       0.00000000      -0.00000000      196        2
Si      14.25294501       3.53366508      13.53814957      28.06000001      -0.00000000      -0.00000000      -0.00000000      197        2
Si      10.03022562       4.45014734      11.64457716      28.06000001      -0.00000000      -0.00000000       0.00000000      198        2
Si       2.93363847      14.70558350      17.77146794      28.06000001      -0.00000000      -0.00000000       0.00000000      199        2
Si      12.66139405      21.10818721      19.89604939      28.06000001       0.00000000      -0.00000000       0.00000000      200        2
O        8.39056608      13.30523949       6.03956147      15.99000000      -0.00000000      -0.00000000       0.00000000      201        1
O        0.98320132      17.19314106      10.76339837      15.99000000      -0.00000000      -0.00000000      -0.00000000      202        1
O        0.66581880       4.70062086       6.87545009      15.99000000      -0.00000000       0.00000000       0.00000000      203        1
O        4.22687717      17.67547939      19.71649460      15.99000000      -0.00000000      -0.00000000      -0.00000000      204        1
O       13.15299966       7.97265306       6.56651893      15.99000000       0.00000000      -0.00000000       0.00000000      205        1
O       17.97314973       2.84844354      13.56591200      15.99000000      -0.00000000      -0.00000000      -0.00000000      206        1
O        4.99212378      18.38522652       4.08541586      15.99000000      -0.00000000      -0.00000000      -0.00000000      207        1
O        1.43187331       0.96122512      11.18701609      15.99000000      -0.00000000       0.00000000       0.00000000      208        1
O       10.37527714      18.62023082      12.16494004      15.99000000       0.00000000      -0.00000000       0.00000000      209        1
O        5.16869522      16.46285904      10.97576542      15.99000000      -0.00000000      -0.00000000       0.00000000      210        1
O        2.28052572       4.77408610      18.14079342      15.99000000      -0.00000000      -0.00000000      -0.00000000      211        1
O       20.77453109       3.59591405      20.97642223      15.99000000       0.00000000       0.00000000       0.00000000      212        1
O       18.56082328      15.83129716      19.05317462      15.99000000       0.00000000      -0.00000000       0.00000000      213        1
O        3.29375477      13.63833995       2.84047895      15.99000000      -0.00000000      -0.00000000      -0.00000000      214        1
O        1.06468265      19.70812193       6.78041114      15.99000000      -0.00000000      -0.00000000      -0.00000000      215        1
O       11.23135862       9.17963714      11.73932789      15.99000000      -0.00000000      -0.00000000      -0.00000000      216        1
Si       5.49065217      19.93421751       3.88862210      28.06000001       0.00000000      -0.00000000       0.00000000      217        2
Si       9.67038312       9.52914861      11.44432700      28.06000001       0.00000000       0.00000000      -0.00000000      218        2
Si      12.81655494       9.57681910       6.39147261      28.06000001      -0.00000000      -0.00000000      -0.00000000      219        2
Si      18.14547032       5.67291481      15.67210111      28.06000001      -0.00000000      -0.00000000       0.00000000      220        2
Si      17.44073441      14.65562532      19.26468624      28.06000001      -0.00000000      -0.00000000       0.00000000      221        2
Si      19.48596940      15.26362072       2.97029797      28.06000001      -0.00000000      -0.00000000      -0.00000000      222        2
Si      10.35713408      18.82963349       1.99654161      28.06000001      -0.00000000      -0.00000000      -0.00000000      223        2
Si      20.58518565      14.61364808      12.75553273      28.06000001       0.00000000       0.00000000       0.00000000      224        2
O        9.87942745      17.53875594      19.69846129      15.99000000      -0.00000000       0.00000000      -0.00000000      225        1
O        3.02841196       7.63724299       9.75813424      15.99000000       0.00000000       0.00000000       0.00000000      226        1
O       16.18074882       7.25182459      11.19038950      15.99000000       0.00000000       0.00000000      -0.00000000      227        1
O       21.23696391       0.61397058       7.20097085      15.99000000      -0.00000000       0.00000000       0.00000000      228        1
O       13.33240788      20.37788717       6.69072831      15.99000000       0.00000000       0.00000000       0.00000000      229        1
O       19.12839521      20.08188255       4.82071767      15.99000000       0.00000000      -0.00000000      -0.00000000      230        1
O       11.04881636       5.50813271       8.28982834      15.99000000      -0.00000000      -0.00000000      -0.00000000      231        1
O       18.65235591       4.36721263      16.50526371      15.99000000       0.00000000      -0.00000000       0.00000000      232        1
O        0.72524877       0.69644577      16.01564247      15.99000000      -0.00000000      -0.00000000       0.00000000      233        1
O       16.27535904       0.22620584       2.73913862      15.99000000      -0.00000000      -0.00000000      -0.00000000      234        1
O       11.16926187      16.24377696       4.49831856      15.99000000       0.00000000       0.00000000       0.00000000      235        1
O        3.12295800       7.53663446       7.07537642      15.99000000      -0.00000000      -0.00000000       0.00000000      236        1
O       12.92991699      11.22189344      13.98238766      15.99000000      -0.00000000       0.00000000       0.00000000      237        1
O        7.08535083       6.73610734      11.35397902      15.99000000      -0.00000000      -0.00000000       0.00000000      238        1
O        7.42212955       6.83707134      14.00740835      15.99000000       0.00000000      -0.00000000       0.00000000      239        1
O       18.80708586       1.05502643      19.90849967      15.99000000       0.00000000       0.00000000      -0.00000000      240        1
Si       3.92477290       5.68422655      13.68268634      28.06000001       0.00000000       0.00000000      -0.00000000      241        2
Si      12.49978150      15.93141140      20.41833402      28.06000001      -0.00000000       0.00000000       0.00000000      242        2
Si       9.73426526       9.94912933       6.18453743      28.06000001       0.00000000       0.00000000      -0.00000000      243        2
Si       3.25464158       0.50696512       2.94596725      28.06000001      -0.00000000       0.00000000       0.00000000      244        2
Si       4.80513104      10.13660393       5.14433094      28.06000001       0.00000000      -0.00000000       0.00000000      245        2
Si       4.04549981       2.43363215       5.28761072      28.06000001       0.00000000      -0.00000000      -0.00000000      246        2
Si      13.83237933      16.40866518      11.16211966      28.06000001       0.00000000      -0.00000000      -0.00000000      247        2
Si       1.01148784       5.89524551      14.92455625      28.06000001      -0.00000000      -0.00000000      -0.00000000      248        2
O       10.18408680      18.74144897       0.38524994      15.99000000       0.00000000      -0.00000000       0.00000000      249        1
O        7.33375235      15.00220715      10.86569580      15.99000000      -0.00000000       0.00000000      -0.00000000      250        1
O        4.18729282       2.29422210      15.62688128      15.99000000      -0.00000000      -0.00000000      -0.00000000      251        1
O       18.23486942      14.78163911       2.00958591      15.99000000      -0.00000000       0.00000000      -0.00000000      252        1
O        4.73231831       3.75028518       4.57291589      15.99000000      -0.00000000      -0.00000000      -0.00000000      253        1
O       11.30193057       9.72905070       5.82576786      15.99000000      -0.00000000      -0.00000000      -0.00000000      254        1
O        1.34769181       6.59707753       2.47978031      15.99000000       0.00000000       0.00000000      -0.00000000      255        1
O        2.73230367      15.26322087       8.50555137      15.99000000       0.00000000       0.00000000       0.00000000      256        1
O        9.18983518      15.34358211      18.19484177      15.99000000      -0.00000000      -0.00000000      -0.00000000      257        1
O       11.77264206      11.81174724      18.80830236      15.99000000       0.00000000       0.00000000      -0.00000000      258        1
O       17.20745630       4.82425352      11.91488880      15.99000000      -0.00000000       0.00000000      -0.00000000      259        1
O        5.12127396      15.59795783      14.44171511      15.99000000      -0.00000000      -0.00000000      -0.00000000      260        1
O        6.58554234       7.77733047      16.29198077      15.99000000      -0.00000000      -0.00000000      -0.00000000      261        1
O       11.44978958      16.82648615      13.72543814      15.99000000       0.00000000      -0.00000000      -0.00000000      262        1
O        2.75291593       7.06626760      19.03209106      15.99000000      -0.00000000       0.00000000       0.00000000      263        1
O       15.41638071       2.59170881      14.21058299      15.99000000       0.00000000       0.00000000       0.00000000      264        1
Si      19.65113524       0.69570587      18.54722294      28.06000001       0.00000000      -0.00000000      -0.00000000      265        2
Si       1.44603681      12.87526644      11.54577562      28.06000001      -0.00000000       0.00000000       0.00000000      266        2
Si       6.15852012      16.52981710       6.96891685      28.06000001       0.00000000       0.00000000      -0.00000000      267        2
Si       3.55173765       5.73839447      18.52735536      28.06000001       0.00000000      -0.00000000      -0.00000000      268        2
Si      10.57561217       4.25207545       7.34177843      28.06000001      -0.00000000      -0.00000000      -0.00000000      269        2
Si       5.51745683      10.08641911      11.93599801      28.06000001       0.00000000      -0.00000000      -0.00000000      270        2
Si       6.96069313      13.56161367       2.15300593      28.06000001      -0.00000000       0.00000000       0.00000000      271        2
Si       5.76684179       4.95101134       7.83007564      28.06000001       0.00000000      -0.00000000       0.00000000      272        2
O       14.56906232       3.63181465       8.03754039      15.99000000       0.00000000       0.00000000       0.00000000      273        1
O        0.39822496      20.14163550      14.32441926      15.99000000      -0.00000000      -0.00000000       0.00000000      274        1
O       16.78559322      17.28458501      13.93769338      15.99000000      -0.00000000      -0.00000000      -0.00000000      275        1
O       12.40551052       8.97486437      15.55133180      15.99000000       0.00000000      -0.00000000       0.00000000      276        1
O       19.64204724      16.40920734      16.55989962      15.99000000      -0.00000000      -0.00000000      -0.00000000      277        1
O        6.28506967      16.24879599       8.59455803      15.99000000      -0.00000000      -0.00000000      -0.00000000      278        1
O        3.79387809       6.52661959      12.24379228      15.99000000       0.00000000       0.00000000      -0.00000000      279        1
O       19.92075223      17.83945977      10.12231205      15.99000000       0.00000000      -0.00000000       0.00000000      280        1
O        3.81733780       1.49611844       1.78411442      15.99000000      -0.00000000      -0.00000000       0.00000000      281        1
O       20.71296720      15.37580420      14.21625115      15.99000000       0.00000000       0.00000000       0.00000000      282        1
O       20.07580277       5.25031161       5.39075956      15.99000000       0.00000000       0.00000000       0.00000000      283        1
O        0.35144580      15.86605825      21.04029610      15.99000000      -0.00000000      -0.00000000      -0.00000000      284        1
O       18.52743903       5.37509065      14.12135523      15.99000000      -0.00000000       0.00000000       0.00000000      285        1
O        6.02778533      13.31718016      15.34601294      15.99000000       0.00000000       0.00000000       0.00000000      286        1
O        7.91342787      10.09373224       2.32892233      15.99000000      -0.00000000      -0.00000000      -0.00000000      287        1
O        0.44865465      20.80858930       9.27471037      15.99000000      -0.00000000      -0.00000000      -0.00000000      288        1
Si       6.52162953      18.52048412      16.82798086      28.06000001       0.00000000      -0.00000000      -0.00000000      289        2
Si       8.92915651       7.03195626      19.05718650      28.06000001      -0.00000000       0.00000000      -0.00000000      290        2
Si       0.40825395       7.67332442      12.52622048      28.06000001      -0.00000000      -0.00000000      -0.00000000      291        2
Si      13.59008336      19.42364105       8.00499881      28.06000001       0.00000000      -0.00000000      -0.00000000      292        2
Si      20.42640604      19.74432268       3.88132632      28.06000001      -0.00000000       0.00000000      -0.00000000      293        2
Si      10.90542312      20.16286501      12.41315032      28.06000001       0.00000000      -0.00000000       0.00000000      294        2
Si       8.58890503       8.53625630       8.67078769      28.06000001       0.00000000      -0.00000000       0.00000000      295        2
Si      11.92491127      11.11960726       1.17187548      28.06000001       0.00000000       0.00000000      -0.00000000      296        2
O       11.55929248      15.75089561       8.62269952      15.99000000       0.00000000      -0.00000000      -0.00000000      297        1
O        2.47337514      10.85880837      17.21035520      15.99000000       0.00000000      -0.00000000      -0.00000000      298        1
O        9.64828145      11.31703193       7.07436707      15.99000000      -0.00000000      -0.00000000      -0.00000000      299        1
O        8.87793059      10.05648554       4.79688100      15.99000000       0.00000000      -0.00000000       0.00000000      300        1
O       17.80249720       8.89537910       7.96007752      15.99000000      -0.00000000      -0.00000000       0.00000000      301        1
O       12.97654981       1.58525039       1.99781252      15.99000000      -0.00000000      -0.00000000      -0.00000000      302        1
O        5.55127847       0.94699582      21.53139237      15.99000000       0.00000000      -0.00000000       0.00000000      303        1
O        1.84796052       9.49506222      19.69389085      15.99000000      -0.00000000       0.00000000      -0.00000000      304        1
O       15.92083896      14.96385490      18.74335092      15.99000000       0.00000000       0.00000000       0.00000000      305        1
O       11.17362225      12.85576502      12.75182848      15.99000000       0.00000000       0.00000000      -0.00000000      306        1
O       16.65448666       3.05863576      17.56281579      15.99000000      -0.00000000      -0.00000000       0.00000000      307        1
O       15.80200748       9.62436158      12.32252735      15.99000000      -0.00000000       0.00000000       0.00000000      308        1
O        5.08366854       8.65656776       5.77444385      15.99000000      -0.00000000      -0.00000000       0.00000000      309        1
O        7.57524867      12.17244164       8.50951636      15.99000000       0.00000000       0.00000000       0.00000000      310        1
O       13.20741169      15.28683563       0.20797822      15.99000000       0.00000000       0.00000000      -0.00000000      311        1
O        6.82902893      14.94373487       1.25665850      15.99000000       0.00000000       0.00000000      -0.00000000      312        1
Si      17.25393239      18.47784933       0.57567810      28.06000001       0.00000000       0.00000000      -0.00000000      313        2
Si      14.61284669       9.07607461       3.98838342      28.06000001       0.00000000      -0.00000000       0.00000000      314        2
Si      18.61004885      20.67346514       8.28748138      28.06000001      -0.00000000       0.00000000      -0.00000000      315        2
Si      14.24019181       9.00848656      19.28776643      28.06000001       0.00000000       0.00000000      -0.00000000      316        2
Si       3.95364403       1.29501078      16.92956733      28.06000001       0.00000000      -0.00000000      -0.00000000      317        2
Si       7.72881399       2.40320786       2.95134332      28.06000001       0.00000000       0.00000000      -0.00000000      318        2
Si       7.41339053       9.41649996      20.51249205      28.06000001       0.00000000      -0.00000000       0.00000000      319        2
Si       5.15276683       2.13046760       1.10398798      28.06000001      -0.00000000       0.00000000      -0.00000000      320        2
O       11.30777191       7.36912076       1.74840117      15.99000000      -0.00000000      -0.00000000      -0.00000000      321        1
O        9.44238494      20.10910557       2.43295168      15.99000000      -0.00000000      -0.00000000       0.00000000      322        1
O       17.22410619      11.29165094       1.50543591      15.99000000       0.00000000      -0.00000000       0.00000000      323        1
O       20.66896336       8.69969896      12.37230110      15.99000000      -0.00000000       0.00000000      -0.00000000      324        1
O       20.81988012       2.92399392       8.43820938      15.99000000      -0.00000000      -0.00000000      -0.00000000      325        1
O       17.19302592      15.49606537       5.96035426      15.99000000      -0.00000000      -0.00000000      -0.00000000      326        1
O        3.69674001      13.27091938      14.31388067      15.99000000      -0.00000000      -0.00000000       0.00000000      327        1
O        8.20042427      12.62417660       1.60983989      15.99000000       0.00000000       0.00000000      -0.00000000      328        1
O        3.38330331      10.68469185      14.84156515      15.99000000       0.00000000      -0.00000000       0.00000000      329        1
O       14.32442669       3.58922099      18.85609940      15.99000000       0.00000000       0.00000000      -0.00000000      330        1
O       17.39555819      14.46320839      20.90637681      15.99000000       0.00000000       0.00000000       0.00000000      331        1
O        9.11712818       3.61459826      20.72700689      15.99000000       0.00000000       0.00000000      -0.00000000      332        1
O        7.86852222       2.95208089       4.51752612      15.99000000      -0.00000000      -0.00000000      -0.00000000      333        1
O       13.02721653       0.88709376       4.70384493      15.99000000      -0.00000000       0.00000000      -0.00000000      334        1
O       13.36856569       8.52452447       3.08134443      15.99000000      -0.00000000      -0.00000000       0.00000000      335        1
O       16.74878125       2.39569546       7.43400261      15.99000000       0.00000000      -0.00000000      -0.00000000      336        1
Si      18.05987761      18.17259681      13.40503801      28.06000001      -0.00000000       0.00000000      -0.00000000      337        2
Si      11.52327261       2.83684876      15.04118595      28.06000001       0.00000000      -0.00000000      -0.00000000      338        2
Si       8.80515079      12.65144813       7.50093622      28.06000001       0.00000000       0.00000000       0.00000000      339        2
Si      18.58674234      10.59714971       0.94404038      28.06000001      -0.00000000       0.00000000      -0.00000000      340        2
Si      11.41679045      17.00586564      15.35967454      28.06000001      -0.00000000      -0.00000000      -0.00000000      341        2
Si      12.87815905      21.32478477      10.34151426      28.06000001       0.00000000      -0.00000000      -0.00000000      342        2
Si       7.27848400      12.88062663      16.27635810      28.06000001      -0.00000000      -0.00000000       0.00000000      343        2
Si      16.01187868      20.14115422       2.97612222      28.06000001      -0.00000000       0.00000000       0.00000000      344        2
O       21.13748930      18.12528334      21.59271807      15.99000000       0.00000000       0.00000000      -0.00000000      345        1
O       11.35889753       5.05612988      10.90054421      15.99000000       0.00000000      -0.00000000       0.00000000      346        1
O       15.65253171      15.08199155       1.35503948      15.99000000       0.00000000      -0.00000000       0.00000000      347        1
O       17.35532212      11.46524387       8.20716598      15.99000000       0.00000000       0.00000000      -0.00000000      348        1
O        5.47221962       6.40819868       7.16740817      15.99000000      -0.00000000      -0.00000000      -0.00000000      349        1
O        0.30754711      13.53511845       0.74296927      15.99000000       0.00000000      -0.00000000       0.00000000      350        1
O       17.23042261       9.06243713      16.27924571      15.99000000       0.00000000       0.00000000      -0.00000000      351        1
O       14.46170950       1.09556941       7.06925295      15.99000000       0.00000000       0.00000000      -0.00000000      352        1
O       12.63598141      11.50774788      16.43421054      15.99000000      -0.00000000       0.00000000       0.00000000      353        1
O       21.50699524      18.73586423       4.60823524      15.99000000      -0.00000000       0.00000000      -0.00000000      354        1
O        9.47633897       0.71180276       8.51695391      15.99000000      -0.00000000      -0.00000000       0.00000000      355        1
O       10.32479905      10.92490954       1.51124730      15.99000000       0.00000000       0.00000000       0.00000000      356        1
O        9.35598686      11.10500864      11.75412580      15.99000000      -0.00000000      -0.00000000       0.00000000      357        1
O        7.83497740       0.79778466      17.15794186      15.99000000      -0.00000000       0.00000000      -0.00000000      358        1
O       18.73942736       8.71341776      18.37157630      15.99000000      -0.00000000       0.00000000       0.00000000      359        1
O       20.02700473      11.05079365      11.22627303      15.99000000      -0.00000000      -0.00000000       0.00000000      360        1
Si      -0.02930464      11.15225025       4.05076900      28.06000001      -0.00000000      -0.00000000       0.00000000      361        2
Si       3.79598442      11.19294923       7.89683026      28.06000001       0.00000000      -0.00000000      -0.00000000      362        2
Si       5.19110555       4.93805631      21.15864573      28.06000001      -0.00000000      -0.00000000       0.00000000      363        2
Si      12.91072088       0.89838857      17.09333740      28.06000001       0.00000000       0.00000000       0.00000000      364        2
Si       9.73964441       1.54388525      12.84098634      28.06000001      -0.00000000       0.00000000      -0.00000000      365        2
Si      15.82241911      16.01306852      13.54755079      28.06000001       0.00000000       0.00000000      -0.00000000      366        2
Si       4.68856474      14.22142388      15.19772206      28.06000001      -0.00000000      -0.00000000       0.00000000      367        2
Si      10.92145210      18.56358648      20.46674406      28.06000001      -0.00000000       0.00000000       0.00000000      368        2
O        0.68472247      11.12970744      -0.09917978      15.99000000      -0.00000000      -0.00000000      -0.00000000      369        1
O        0.88978805       3.35763362      12.06786975      15.99000000      -0.00000000      -0.00000000      -0.00000000      370        1
O        6.19798045       2.40515315       2.34908012      15.99000000      -0.00000000       0.00000000       0.00000000      371        1
O        7.13745758       0.40905021      19.62742797      15.99000000      -0.00000000      -0.00000000      -0.00000000      372        1
O       13.50931056      12.92218247       4.77212634      15.99000000       0.00000000      -0.00000000      -0.00000000      373        1
O       14.49542227       3.03091268      11.98380712      15.99000000       0.00000000      -0.00000000      -0.00000000      374        1
O       20.43823882      10.95617349      13.99244225      15.99000000      -0.00000000      -0.00000000      -0.00000000      375        1
O        6.75643725       4.62631369      20.83037021      15.99000000      -0.00000000      -0.00000000      -0.00000000      376        1
O       14.45609637      19.68713156       2.78461815      15.99000000       0.00000000      -0.00000000       0.00000000      377        1
O       18.17960757       7.11715763       5.94536054      15.99000000       0.00000000      -0.00000000       0.00000000      378        1
O        3.16745054      12.64508653       8.32960534      15.99000000       0.00000000      -0.00000000      -0.00000000      379        1
O        8.85314467       7.71200877      17.57934946      15.99000000       0.00000000       0.00000000       0.00000000      380        1
O       20.63957396      15.70211780       1.89256570      15.99000000      -0.00000000       0.00000000      -0.00000000      381        1
O        6.01820941       5.75366912       3.16549405      15.99000000       0.00000000      -0.00000000      -0.00000000      382        1
O       17.49919638      10.15367421      10.41540312      15.99000000      -0.00000000      -0.00000000      -0.00000000      383        1
O       12.69118743       0.55584941      21.21985499      15.99000000      -0.00000000      -0.00000000      -0.00000000      384        1
Si      18.26879271       3.30324976      17.67012578      28.06000001       0.00000000      -0.00000000       0.00000000      385        2
Si       1.35899965       1.85848218      12.55679971      28.06000001      -0.00000000       0.00000000       0.00000000      386        2
Si      18.66564418       5.56889334       6.16508559      28.06000001      -0.00000000      -0.00000000       0.00000000      387        2
Si      17.03417489      10.01707472       8.86292324      28.06000001       0.00000000       0.00000000       0.00000000      388        2
Si      17.31946812       1.23810425      20.58244091      28.06000001       0.00000000       0.00000000       0.00000000      389        2
Si       3.34080482      13.96276871       9.29562318      28.06000001       0.00000000      -0.00000000       0.00000000      390        2
Si      17.06413944      10.56742089      11.93895304      28.06000001      -0.00000000      -0.00000000      -0.00000000      391        2
Si      13.26789614       2.04356032       3.54579613      28.06000001       0.00000000      -0.00000000      -0.00000000      392        2
O        2.59953510       5.61871006      14.65950456      15.99000000       0.00000000       0.00000000       0.00000000      393        1
O       15.41822223       9.85514439       8.84754312      15.99000000       0.00000000       0.00000000       0.00000000      394        1
O        9.50224779       9.20537799       9.84917290      15.99000000      -0.00000000       0.00000000       0.00000000      395        1
O        6.25652649      10.42933198       4.44527467      15.99000000      -0.00000000      -0.00000000      -0.00000000      396        1
O        8.36150475       6.96538159       9.03570734      15.99000000      -0.00000000      -0.00000000       0.00000000      397        1
O       12.22542233      16.81056266      11.25300456      15.99000000       0.00000000       0.00000000      -0.00000000      398        1
O       13.15754580       9.95552884      10.25231992      15.99000000      -0.00000000      -0.00000000       0.00000000      399        1
O       12.37670729      13.61218663       7.15577436      15.99000000      -0.00000000      -0.00000000      -0.00000000      400        1
O       14.65064780       5.08973843      13.80092138      15.99000000      -0.00000000       0.00000000       0.00000000      401        1
O        3.43653894      11.20260812       1.64601640      15.99000000       0.00000000      -0.00000000      -0.00000000      402        1
O       17.65063767       1.89335466       0.51768116      15.99000000       0.00000000      -0.00000000      -0.00000000      403        1
O       19.91585667       9.50935702      16.14552525      15.99000000       0.00000000       0.00000000       0.00000000      404        1
O        7.15541447      21.40804228      14.84476143      15.99000000      -0.00000000      -0.00000000      -0.00000000      405        1
O        2.59458838      16.31794984      17.93546212      15.99000000       0.00000000      -0.00000000       0.00000000      406        1
O        6.44760301      18.08774614      18.42671443      15.99000000       0.00000000       0.00000000      -0.00000000      407        1
O        8.14582807       1.61366723      13.17570878      15.99000000       0.00000000      -0.00000000       0.00000000      408        1
Si      18.36405494      18.34438787      10.25506054      28.06000001       0.00000000      -0.00000000      -0.00000000      409        2
Si       8.73605219      18.33017065       6.77829735      28.06000001      -0.00000000       0.00000000      -0.00000000      410        2
Si       8.33575608      21.11130476       8.18139651      28.06000001       0.00000000       0.00000000       0.00000000      411        2
Si      12.58723307      16.65760433       5.16579186      28.06000001      -0.00000000      -0.00000000      -0.00000000      412        2
Si      11.36258088      17.23451215       7.97960637      28.06000001       0.00000000       0.00000000      -0.00000000      413        2
Si       2.52961117       8.12856239      20.23516949      28.06000001      -0.00000000       0.00000000       0.00000000      414        2
Si      14.09300226      15.57091773       1.54494461      28.06000001      -0.00000000       0.00000000      -0.00000000      415        2
Si       8.01163492      20.87349868       2.21766321      28.06000001      -0.00000000      -0.00000000      -0.00000000      416        2
O       12.31901658      11.97096273      -0.17200726      15.99000000       0.00000000      -0.00000000       0.00000000      417        1
O       12.51554729       5.35953211      19.54839775      15.99000000      -0.00000000       0.00000000       0.00000000      418        1
O       20.70507882      17.33096616      18.93354823      15.99000000       0.00000000       0.00000000      -0.00000000      419        1
O        1.81344351       3.70315295       8.83820492      15.99000000      -0.00000000       0.00000000       0.00000000      420        1
O       18.99408201       1.84321233      17.57968292      15.99000000       0.00000000       0.00000000       0.00000000      421        1
O       10.98817099      15.37911386      20.14713948      15.99000000       0.00000000       0.00000000       0.00000000      422        1
O       18.85726219       6.76749115       1.85433096      15.99000000      -0.00000000      -0.00000000      -0.00000000      423        1
O       17.69759117       4.29473637       5.82528254      15.99000000      -0.00000000      -0.00000000       0.00000000      424        1
O        0.14994653       6.15638855      11.90542885      15.99000000      -0.00000000      -0.00000000      -0.00000000      425        1
O       15.76133557       9.92518144       3.22014342      15.99000000       0.00000000      -0.00000000      -0.00000000      426        1
O       12.55536826       9.61148437       0.95416357      15.99000000      -0.00000000      -0.00000000      -0.00000000      427        1
O       11.27233408      18.57696435      15.88196647      15.99000000      -0.00000000      -0.00000000      -0.00000000      428        1
O        9.23504886       8.77181441       7.19411768      15.99000000      -0.00000000      -0.00000000      -0.00000000      429        1
O        2.28815211      11.87483141      12.55015186      15.99000000       0.00000000      -0.00000000      -0.00000000      430        1
O        9.75921772       5.27886287      13.03942429      15.99000000       0.00000000       0.00000000       0.00000000      431        1
O       12.51583364      11.91273298       2.48378225      15.99000000       0.00000000      -0.00000000      -0.00000000      432        1
Si      18.09200323      12.01795143      17.61141650      28.06000001      -0.00000000       0.00000000      -0.00000000      433        2
Si      12.55795763       8.62931628      10.98265854      28.06000001      -0.00000000      -0.00000000       0.00000000      434        2
Si       5.04355118       7.99214560       0.48489880      28.06000001       0.00000000      -0.00000000      -0.00000000      435        2
Si       6.83835857       0.67501035      13.43338483      28.06000001      -0.00000000       0.00000000      -0.00000000      436        2
Si       4.45286196       7.22111056       6.19538399      28.06000001      -0.00000000      -0.00000000       0.00000000      437        2
Si      15.36297107       2.43269311      18.34189937      28.06000001      -0.00000000       0.00000000      -0.00000000      438        2
Si      11.43740374      14.12704875       8.41369313      28.06000001       0.00000000      -0.00000000       0.00000000      439        2
Si       4.21525456       0.32015239       9.15046821      28.06000001       0.00000000       0.00000000       0.00000000      440        2
O       19.77954548       0.02671763      15.10498605      15.99000000       0.00000000       0.00000000       0.00000000      441        1
O        2.98355202      20.94888742       9.70774810      15.99000000       0.00000000      -0.00000000       0.00000000      442        1
O        3.63292840      16.13677857       3.83423004      15.99000000       0.00000000      -0.00000000       0.00000000      443        1
O        7.78541411      20.55738703       9.63023382      15.99000000       0.00000000      -0.00000000      -0.00000000      444        1
O       13.83445622       9.89936621       5.16124269      15.99000000       0.00000000       0.00000000       0.00000000      445        1
O       10.20638386      16.04024153      15.90474260      15.99000000       0.00000000       0.00000000       0.00000000      446        1
O       21.11490035      15.89293932       8.84921709      15.99000000      -0.00000000       0.00000000      -0.00000000      447        1
O        3.16688066       2.79111776       6.63028841      15.99000000      -0.00000000       0.00000000      -0.00000000      448        1
O        5.08927525      11.06667403       8.87219891      15.99000000       0.00000000      -0.00000000      -0.00000000      449        1
O       11.99373179       7.49954162       9.94302241      15.99000000      -0.00000000       0.00000000       0.00000000      450        1
O       14.95492560      18.51850324       7.99189062      15.99000000       0.00000000       0.00000000       0.00000000      451        1
O       20.00438508       7.78818021       8.98057293      15.99000000       0.00000000       0.00000000       0.00000000      452        1
O       21.71934866      11.69122575      16.14287825      15.99000000      -0.00000000      -0.00000000      -0.00000000      453        1
O       12.49008611      21.05857034      16.23865786      15.99000000      -0.00000000       0.00000000       0.00000000      454        1
O        7.71649376      19.63770832      16.70943216      15.99000000      -0.00000000      -0.00000000      -0.00000000      455        1
O        0.90725082       4.14542996       1.53047913      15.99000000      -0.00000000      -0.00000000       0.00000000      456        1
Si       1.30061887      12.01996536      17.31665500      28.06000001      -0.00000000      -0.00000000       0.00000000      457        2
Si      15.15563647       6.89431023      21.37830518      28.06000001       0.00000000      -0.00000000      -0.00000000      458        2
Si      13.14908278       0.45048353       6.29404966      28.06000001       0.00000000       0.00000000      -0.00000000      459        2
Si       7.67567066      14.45979326       5.10955659      28.06000001       0.00000000      -0.00000000       0.00000000      460        2
Si      12.67850201      12.72146269      13.37639395      28.06000001       0.00000000      -0.00000000       0.00000000      461        2
Si      20.34970656      16.72052476      15.10116110      28.06000001       0.00000000       0.00000000       0.00000000      462        2
Si      20.93448840       8.81405780       8.12956018      28.06000001      -0.00000000       0.00000000      -0.00000000      463        2
Si       9.64069492      12.30573221      12.83250611      28.06000001      -0.00000000      -0.00000000      -0.00000000      464        2
O        0.41509704      11.41604920       2.50342433      15.99000000       0.00000000      -0.00000000       0.00000000      465        1
O        4.44486552       8.67896119       1.84236820      15.99000000      -0.00000000      -0.00000000       0.00000000      466        1
O        3.84773004      13.40376393       0.18899477      15.99000000      -0.00000000       0.00000000      -0.00000000      467        1
O        6.83813351      19.99654567       2.95715961      15.99000000       0.00000000       0.00000000       0.00000000      468        1
O        7.81457433      11.46501217      15.70310859      15.99000000      -0.00000000       0.00000000      -0.00000000      469        1
O       13.94703688       0.60175978      11.25098506      15.99000000       0.00000000       0.00000000      -0.00000000      470        1
O       19.19575189       5.81900439      20.85157318      15.99000000      -0.00000000       0.00000000       0.00000000      471        1
O       17.84959978      18.11349715      11.78289784      15.99000000      -0.00000000      -0.00000000      -0.00000000      472        1
O        7.65259031      20.97402415       0.61546525      15.99000000       0.00000000      -0.00000000       0.00000000      473        1
O       14.09526114      20.29452192      19.77387194      15.99000000       0.00000000      -0.00000000       0.00000000      474        1
O        0.39456201      12.45980554       4.91185606      15.99000000      -0.00000000       0.00000000       0.00000000      475        1
O        2.79146933       9.94319427       8.26238683      15.99000000      -0.00000000       0.00000000       0.00000000      476        1
O       13.40273588       5.66972991       5.00514677      15.99000000       0.00000000      -0.00000000       0.00000000      477        1
O       17.55795097      13.96301644       7.96950704      15.99000000       0.00000000       0.00000000      -0.00000000      478        1
O       11.54466506      20.23769923      13.91399591      15.99000000      -0.00000000       0.00000000      -0.00000000      479        1
O       17.65847130      20.33447819       7.00409062      15.99000000      -0.00000000       0.00000000       0.00000000      480        1
Si      15.93252479       9.93101421      16.77223631      28.06000001       0.00000000       0.00000000      -0.00000000      481        2
Si       5.84334058      11.33060602      18.50913628      28.06000001       0.00000000      -0.00000000      -0.00000000      482        2
Si      11.31878622      12.02066259      17.25392774      28.06000001      -0.00000000       0.00000000      -0.00000000      483        2
Si       3.73468803      10.20325313      16.37976753      28.06000001       0.00000000      -0.00000000       0.00000000      484        2
Si      12.47748798       1.99272789       0.47861117      28.06000001      -0.00000000       0.00000000       0.00000000      485        2
Si       9.16546536      10.60669540      15.48514174      28.06000001       0.00000000      -0.00000000      -0.00000000      486        2
Si       6.82188844      15.55831992      -0.27788244      28.06000001       0.00000000       0.00000000      -0.00000000      487        2
Si       2.49819165       8.32551607       8.35812286      28.06000001       0.00000000      -0.00000000       0.00000000      488        2
O       16.86998330      19.08422843       2.05486917      15.99000000      -0.00000000      -0.00000000       0.00000000      489        1
O       18.87686551       9.44365095       2.06330105      15.99000000      -0.00000000       0.00000000       0.00000000      490        1
O        0.56335581       5.72222933      16.47285262      15.99000000       0.00000000      -0.00000000      -0.00000000      491        1
O       17.52973023      16.85575054       0.53342816      15.99000000       0.00000000      -0.00000000      -0.00000000      492        1
O        2.52818514      13.78150608      10.71010650      15.99000000       0.00000000      -0.00000000       0.00000000      493        1
O       21.03370868       8.15725412       1.50635458      15.99000000      -0.00000000       0.00000000      -0.00000000      494        1
O        7.17334683       0.33356776       7.30453504      15.99000000      -0.00000000       0.00000000      -0.00000000      495        1
O       18.51595509       6.15121400      10.31886352      15.99000000       0.00000000      -0.00000000       0.00000000      496        1
O        0.64002637       7.24487797      14.08779940      15.99000000      -0.00000000       0.00000000      -0.00000000      497        1
O        5.85376921      14.57990545      20.33682585      15.99000000       0.00000000      -0.00000000      -0.00000000      498        1
O       18.28123320      18.14640267      18.05361164      15.99000000      -0.00000000       0.00000000       0.00000000      499        1
O        1.72718523      15.48821675       1.88311140      15.99000000      -0.00000000      -0.00000000      -0.00000000      500        1
O        7.22675093       8.05013346       3.98084924      15.99000000      -0.00000000      -0.00000000      -0.00000000      501        1
O       21.09542673      20.64311417       0.84878545      15.99000000       0.00000000      -0.00000000      -0.00000000      502        1
O       18.70083833      19.18721042       0.26789051      15.99000000       0.00000000       0.00000000      -0.00000000      503        1
O        4.72951997       3.58495043       0.45510985      15.99000000       0.00000000       0.00000000       0.00000000      504        1
Si      10.37869929       6.12727402       2.32398853      28.06000001      -0.00000000       0.00000000       0.00000000      505        2
Si       4.53685826      13.59949842      20.23777934      28.06000001      -0.00000000       0.00000000      -0.00000000      506        2
Si      19.61274041       6.21656405       9.11857117      28.06000001       0.00000000      -0.00000000       0.00000000      507        2
Si       4.57983250       5.18974401       3.79055411      28.06000001       0.00000000      -0.00000000       0.00000000      508        2
Si      16.33452477       1.68796103       3.48209560      28.06000001       0.00000000       0.00000000      -0.00000000      509        2
Si      18.46818918      12.61035208       7.89241428      28.06000001      -0.00000000      -0.00000000       0.00000000      510        2
Si      20.30243019      11.02762142      15.63132046      28.06000001      -0.00000000       0.00000000      -0.00000000      511        2
Si      17.62395591       2.68269970       6.09623568      28.06000001       0.00000000       0.00000000       0.00000000      512        2
O        4.16220123      14.57482830      16.70272081      15.99000000      -0.00000000       0.00000000       0.00000000      513        1
O       21.14822076       5.14954847      18.93458983      15.99000000      -0.00000000       0.00000000      -0.00000000      514        1
O       16.46757067      19.99870324       4.53855698      15.99000000       0.00000000       0.00000000      -0.00000000      515        1
O       16.13150332       2.00787070      19.73944103      15.99000000      -0.00000000       0.00000000       0.00000000      516        1
O       20.74599723       9.67632004      19.77144550      15.99000000      -0.00000000       0.00000000      -0.00000000      517        1
O        0.66413463      17.10574430       6.68119539      15.99000000      -0.00000000      -0.00000000      -0.00000000      518        1
O        1.36144603      19.76002479      11.44057294      15.99000000       0.00000000       0.00000000      -0.00000000      519        1
O       10.88530263       2.33936878       0.65185112      15.99000000      -0.00000000       0.00000000       0.00000000      520        1
O       14.81358090      10.21982743      15.61989845      15.99000000      -0.00000000      -0.00000000       0.00000000      521        1
O        6.74114302      17.33623266      15.68788666      15.99000000      -0.00000000      -0.00000000       0.00000000      522        1
O       21.72139337       4.84759979      13.97631890      15.99000000       0.00000000      -0.00000000      -0.00000000      523        1
O       17.29885232      11.88000442       4.07976284      15.99000000      -0.00000000      -0.00000000       0.00000000      524        1
O       12.70798097       3.22592283      13.97314179      15.99000000       0.00000000      -0.00000000      -0.00000000      525        1
O       18.11165060       9.85898879       5.50815421      15.99000000      -0.00000000       0.00000000       0.00000000      526        1
O       18.38372147      10.07655750      12.74182434      15.99000000       0.00000000       0.00000000      -0.00000000      527        1
O       13.70923905      20.50523731       9.21511520      15.99000000      -0.00000000       0.00000000      -0.00000000      528        1
Si      19.67734539       8.06840352       2.40084535      28.06000001       0.00000000       0.00000000      -0.00000000      529        2
Si       3.52688784      11.78937407      13.63339845      28.06000001      -0.00000000      -0.00000000       0.00000000      530        2
Si      17.61221024      13.58339873      12.58826692      28.06000001      -0.00000000       0.00000000      -0.00000000      531        2
Si      16.94618514       5.88646682      10.70526553      28.06000001       0.00000000      -0.00000000       0.00000000      532        2
Si      14.13306767       6.79277729       5.95633339      28.06000001       0.00000000      -0.00000000      -0.00000000      533        2
Si       1.16921045      18.73190379      14.67105467      28.06000001       0.00000000       0.00000000      -0.00000000      534        2
Si       3.58429361      19.67206118      16.50747955      28.06000001       0.00000000       0.00000000       0.00000000      535        2
Si      21.39243242       4.59951830      12.39598528      28.06000001      -0.00000000      -0.00000000       0.00000000      536        2
O       19.82782651       4.20536917      12.19640951      15.99000000       0.00000000       0.00000000      -0.00000000      537        1
O       14.93760799       6.11676708       7.20017423      15.99000000      -0.00000000       0.00000000       0.00000000      538        1
O       11.53205339       4.15185518       6.02971577      15.99000000      -0.00000000       0.00000000      -0.00000000      539        1
O        3.40845901      14.27750146      19.27509600      15.99000000      -0.00000000       0.00000000      -0.00000000      540        1
O        6.35180150       8.95832104      12.76873859      15.99000000       0.00000000       0.00000000      -0.00000000      541        1
O       16.47162647      21.37335396      20.77093326      15.99000000       0.00000000      -0.00000000      -0.00000000      542        1
O        3.46077742      18.33363953      11.42046005      15.99000000      -0.00000000      -0.00000000      -0.00000000      543        1
O        5.24775471       1.35445789      17.96798061      15.99000000      -0.00000000       0.00000000       0.00000000      544        1
O       13.52230768       5.53734467       9.45801881      15.99000000       0.00000000       0.00000000       0.00000000      545        1
O        0.41741038       3.17285362      17.24322165      15.99000000      -0.00000000       0.00000000       0.00000000      546        1
O        6.97179552      13.78213336       3.78606285      15.99000000      -0.00000000       0.00000000       0.00000000      547        1
O       12.39708179       0.54455416      18.60183594      15.99000000      -0.00000000       0.00000000      -0.00000000      548        1
O       11.40664809       6.61523532      14.74057646      15.99000000       0.00000000      -0.00000000       0.00000000      549        1
O        2.59257671      18.24072419       5.15212272      15.99000000       0.00000000       0.00000000       0.00000000      550        1
O       16.52528751      20.04369136      18.56767079      15.99000000      -0.00000000       0.00000000       0.00000000      551        1
O       14.55875864      16.50171045      12.62538466      15.99000000      -0.00000000      -0.00000000       0.00000000      552        1
Si       0.86532489       1.59942207      17.38595093      28.06000001      -0.00000000       0.00000000       0.00000000      553        2
Si       0.68531581       4.71190504      17.74892614      28.06000001      -0.00000000      -0.00000000      -0.00000000      554        2
Si       8.70645474      11.09191724       1.28704876      28.06000001      -0.00000000      -0.00000000      -0.00000000      555        2
Si       1.08950724      18.41577304       5.78635781      28.06000001       0.00000000       0.00000000       0.00000000      556        2
Si       1.63983983       5.01109468       2.71926111      28.06000001      -0.00000000       0.00000000      -0.00000000      557        2
Si      15.10354885       1.72738127      11.18129399      28.06000001      -0.00000000      -0.00000000       0.00000000      558        2
Si       4.20879395       2.49029236      13.97968942      28.06000001       0.00000000      -0.00000000       0.00000000      559        2
Si       6.51235629      -0.28823621      20.97726409      28.06000001       0.00000000      -0.00000000       0.00000000      560        2
O       11.88447976       6.80847836      17.25773937      15.99000000      -0.00000000       0.00000000       0.00000000      561        1
O       20.02247510       7.98401377       3.99885839      15.99000000       0.00000000      -0.00000000       0.00000000      562        1
O       14.74767092      17.34777579      10.18574402      15.99000000       0.00000000       0.00000000       0.00000000      563        1
O        6.80434274      12.43672549      17.77351766      15.99000000       0.00000000       0.00000000       0.00000000      564        1
O        2.62829328      18.98429149      15.37048293      15.99000000      -0.00000000      -0.00000000       0.00000000      565        1
O        5.76947226      19.79527965      20.54940820      15.99000000      -0.00000000       0.00000000       0.00000000      566        1
O        1.59524681      17.87798298      19.82765456      15.99000000       0.00000000      -0.00000000      -0.00000000      567        1
O       13.95944181       6.77760154      15.73604978      15.99000000       0.00000000       0.00000000       0.00000000      568        1
O       12.07277782      20.29563421      11.29268472      15.99000000       0.00000000       0.00000000       0.00000000      569        1
O        7.18976644      17.79744907       6.81610754      15.99000000      -0.00000000      -0.00000000      -0.00000000      570        1
O       13.96570311      17.18607487       1.83545472      15.99000000      -0.00000000       0.00000000       0.00000000      571        1
O       13.32152215      17.77786110       4.24914601      15.99000000      -0.00000000      -0.00000000       0.00000000      572        1
O        5.60502042      12.68150779       1.93335677      15.99000000       0.00000000      -0.00000000       0.00000000      573        1
O        7.25493324       9.47632562       8.67741619      15.99000000      -0.00000000      -0.00000000      -0.00000000      574        1
O        1.79690447      13.59997841      17.29883084      15.99000000       0.00000000       0.00000000       0.00000000      575        1
O       13.47888054      14.50117999       2.62985308      15.99000000      -0.00000000      -0.00000000      -0.00000000      576        1
Si      21.61566577      20.62531356       7.69415120      28.06000001      -0.00000000       0.00000000       0.00000000      577        2
Si      13.41230193      18.42742729       2.76049882      28.06000001       0.00000000       0.00000000       0.00000000      578        2
Si      14.39148360      14.40968511      18.54704765      28.06000001       0.00000000       0.00000000      -0.00000000      579        2
Si       1.10581984       7.85076551       1.47192055      28.06000001       0.00000000       0.00000000       0.00000000      580        2
Si       1.84634303      18.22715257      11.70319075      28.06000001       0.00000000       0.00000000       0.00000000      581        2
Si      21.02686804      16.06614504       7.21592731      28.06000001       0.00000000      -0.00000000       0.00000000      582        2
Si      21.08780648       8.34948488       5.19996279      28.06000001       0.00000000       0.00000000      -0.00000000      583        2
Si      15.72160098      17.36301617       8.86671947      28.06000001       0.00000000      -0.00000000      -0.00000000      584        2
O       10.45246818       4.91054510       1.22276752      15.99000000       0.00000000       0.00000000       0.00000000      585        1
O       10.50014360       6.94550560      19.46578451      15.99000000       0.00000000      -0.00000000       0.00000000      586        1
O       16.64114956      11.30526113      17.32607861      15.99000000      -0.00000000       0.00000000      -0.00000000      587        1
O       17.33109791       2.77004907       2.80533878      15.99000000      -0.00000000      -0.00000000       0.00000000      588        1
O        2.49531204       1.59301443      17.65983055      15.99000000       0.00000000      -0.00000000      -0.00000000      589        1
O        9.02120626       4.18975086       6.82036170      15.99000000       0.00000000       0.00000000       0.00000000      590        1
O       14.04148101      14.16270340      16.97055358      15.99000000      -0.00000000      -0.00000000       0.00000000      591        1
O        4.27184212      20.75311000       3.15339906      15.99000000       0.00000000      -0.00000000      -0.00000000      592        1
O       10.83096742       2.95233076       8.29875417      15.99000000      -0.00000000       0.00000000      -0.00000000      593        1
O        0.44364613      13.75183592      12.50932704      15.99000000      -0.00000000      -0.00000000       0.00000000      594        1
O        3.97297854       8.56357859      16.33444473      15.99000000       0.00000000      -0.00000000      -0.00000000      595        1
O        1.81533187       8.26726751      11.95551396      15.99000000       0.00000000      -0.00000000       0.00000000      596        1
O       16.88916442      12.17804994      12.17983730      15.99000000      -0.00000000       0.00000000      -0.00000000      597        1
O       12.12543076      13.51453833       9.76316606      15.99000000       0.00000000       0.00000000       0.00000000      598        1
O       17.29393591      17.60282344       9.25694728      15.99000000       0.00000000      -0.00000000       0.00000000      599        1
O        5.05355569      10.82657381      17.14182071      15.99000000      -0.00000000       0.00000000      -0.00000000      600        1
Si       7.88793014       4.12523604      19.76655133      28.06000001      -0.00000000       0.00000000      -0.00000000      601        2
Si       3.36107438       9.76443811       2.41608322      28.06000001      -0.00000000      -0.00000000      -0.00000000      602        2
Si      12.08445221       4.77191577       4.62536975      28.06000001       0.00000000       0.00000000       0.00000000      603        2
Si       0.60829965      10.51773800      19.91785939      28.06000001      -0.00000000      -0.00000000      -0.00000000      604        2
Si      17.19374907      15.26795448       0.82119367      28.06000001       0.00000000      -0.00000000       0.00000000      605        2
Si      20.00060444      10.17093148      12.62135310      28.06000001      -0.00000000       0.00000000       0.00000000      606        2
Si       8.28714739      15.13628677      12.22400757      28.06000001      -0.00000000      -0.00000000      -0.00000000      607        2
Si       7.85520277       4.16686486       5.64813383      28.06000001       0.00000000       0.00000000       0.00000000      608        2
O       15.55501593       1.77790023       9.61025168      15.99000000       0.00000000       0.00000000       0.00000000      609        1
O       12.14864906      17.35301821       6.55438629      15.99000000      -0.00000000       0.00000000       0.00000000      610        1
O        9.78921992      11.34969275      14.16901965      15.99000000      -0.00000000       0.00000000       0.00000000      611        1
O        3.00518083      19.05211749      17.90173522      15.99000000       0.00000000       0.00000000       0.00000000      612        1
O       14.95289727       7.76166467       4.91225798      15.99000000       0.00000000      -0.00000000       0.00000000      613        1
O       18.84066009      11.23164702      18.82709486      15.99000000      -0.00000000      -0.00000000      -0.00000000      614        1
O       19.23395081      13.66868617      12.77678208      15.99000000       0.00000000       0.00000000       0.00000000      615        1
O       13.71627530       8.02105756      11.95247397      15.99000000       0.00000000      -0.00000000      -0.00000000      616        1
O        5.44031576       1.56007987      13.35802912      15.99000000      -0.00000000       0.00000000       0.00000000      617        1
O        0.14660040      17.66523007      15.37697628      15.99000000      -0.00000000       0.00000000      -0.00000000      618        1
O        0.89062745       8.12388461       8.17450858      15.99000000       0.00000000       0.00000000      -0.00000000      619        1
O       11.95159056      19.03014442       2.31732868      15.99000000       0.00000000      -0.00000000      -0.00000000      620        1
O        6.61964757      15.21627053       6.10368495      15.99000000      -0.00000000      -0.00000000      -0.00000000      621        1
O       21.02914867      10.33849338       8.70857053      15.99000000      -0.00000000       0.00000000      -0.00000000      622        1
O       20.07448701      19.02654274       2.44506938      15.99000000      -0.00000000      -0.00000000       0.00000000      623        1
O       16.73248235       6.91245817       0.32331679      15.99000000       0.00000000      -0.00000000      -0.00000000      624        1
Si       3.23363766       3.15497907       8.23255117      28.06000001       0.00000000       0.00000000      -0.00000000      625        2
Si       9.66272393      16.78570824       4.21534132      28.06000001      -0.00000000       0.00000000       0.00000000      626        2
Si       5.01298522       7.27839721      16.16171819      28.06000001      -0.00000000       0.00000000       0.00000000      627        2
Si       6.86818450       1.40965581      18.34881679      28.06000001      -0.00000000      -0.00000000       0.00000000      628        2
Si      18.52908656      11.36441549       5.02038771      28.06000001       0.00000000       0.00000000      -0.00000000      629        2
Si      13.60483437      12.94453036       3.14112970      28.06000001       0.00000000      -0.00000000       0.00000000      630        2
Si      18.49574511       8.62654186       6.50266931      28.06000001       0.00000000       0.00000000      -0.00000000      631        2
Si      16.76436867       1.77792321      13.75270044      28.06000001       0.00000000      -0.00000000      -0.00000000      632        2
O        8.19101374       0.83374243       2.89669716      15.99000000       0.00000000       0.00000000      -0.00000000      633        1
O        6.43148878       8.76834509       0.13422507      15.99000000       0.00000000      -0.00000000      -0.00000000      634        1
O        3.65064899      10.02122810       3.99863226      15.99000000      -0.00000000      -0.00000000       0.00000000      635        1
O       15.09093718       9.07210084      17.89079959      15.99000000       0.00000000      -0.00000000       0.00000000      636        1
O       19.75674699       3.21053968       1.73504038      15.99000000      -0.00000000       0.00000000       0.00000000      637        1
O        9.87154575      13.65697188       8.24780047      15.99000000       0.00000000      -0.00000000       0.00000000      638        1
O        6.53889780       4.12770933       6.63856849      15.99000000      -0.00000000      -0.00000000      -0.00000000      639        1
O        0.20053969       1.17053914      13.51056361      15.99000000      -0.00000000      -0.00000000      -0.00000000      640        1
O       14.10100713      14.91647230      10.52444611      15.99000000      -0.00000000      -0.00000000      -0.00000000      641        1
O       20.31838993      14.22661933       3.93865231      15.99000000       0.00000000       0.00000000       0.00000000      642        1
O       11.43699696      20.00743545      19.90014533      15.99000000      -0.00000000      -0.00000000       0.00000000      643        1
O        4.70855258      16.92281827       6.27740551      15.99000000      -0.00000000      -0.00000000       0.00000000      644        1
O        4.00270411       8.42326959      20.83637424      15.99000000       0.00000000       0.00000000      -0.00000000      645        1
O       19.71217627      12.52760472       8.96638732      15.99000000      -0.00000000       0.00000000      -0.00000000      646        1
O        1.62476363       7.55533232      21.47053859      15.99000000       0.00000000       0.00000000       0.00000000      647        1
O       17.63025744      18.02790563       5.70584263      15.99000000      -0.00000000       0.00000000      -0.00000000      648        1
